instances/p2/p2_4_13-1.txt
{
	"num_strings": 4,
	"alphabet": "ACGT",
	"strings": [
		"CAGA",
		"AGTCGG",
		"TCGAACA",
		"TAAT"
	],
	"str_length":[4,6,7,4]
}